sat
(:added-eqs                       7767
 :arith-eq-adapter                603
 :arith-bound-propagations-lp     751
 :arith-branch                    11
 :arith-conflicts                 2081
 :arith-cube-calls                4
 :arith-diseq                     3523
 :arith-fixed-eqs                 1484
 :arith-gcd-calls                 130
 :arith-gomory-cuts               6
 :arith-grobner-calls             431
 :arith-grobner-conflicts         276
 :arith-horner-calls              111
 :arith-horner-conflicts          5
 :arith-horner-cross-nested-forms 39284
 :arith-lower                     5268
 :arith-make-feasible             5067
 :arith-max-columns               523
 :arith-max-rows                  297
 :arith-nla-add-bounds            70
 :arith-nla-lemmas                1569
 :arith-nla-propagate-bounds      284
 :arith-nla-propagate-eq          4398
 :arith-nra-calls                 94
 :arith-offset-eqs                680
 :arith-patches                   130
 :arith-patches-success           113
 :arith-upper                     7870
 :binary-propagations             11299
 :cnf-encoding-aux-vars           6
 :conflicts                       387
 :decisions                       18963
 :del-clause                      2993
 :final-checks                    716
 :max-memory                      151.63
 :memory                          91.29
 :minimized-lits                  45
 :mk-bool-var                     6535
 :mk-clause                       4275
 :mk-clause-binary                1561
 :nlsat-conflicts                 8010
 :nlsat-decisions                 160
 :nlsat-irrational-assignments    1
 :nlsat-propagations              213875
 :nlsat-restarts                  2
 :nlsat-stages                    111577
 :num-allocs                      5463555377.00
 :num-checks                      1
 :propagations                    21161
 :restarts                        3
 :rlimit-count                    4246937
 :sat-backjumps                   501
 :sat-conflicts                   501
 :sat-decisions                   1950
 :sat-del-clause                  76514
 :sat-elim-bool-vars-res          14408
 :sat-elim-clauses                51
 :sat-elim-literals               1410
 :sat-minimized-lits              3361
 :sat-mk-clause-2ary              45079
 :sat-mk-clause-3ary              19397
 :sat-mk-clause-nary              122466
 :sat-mk-var                      30236
 :sat-probing-assigned            56
 :sat-propagations-2ary           358168
 :sat-propagations-nary           286149
 :sat-restarts                    63
 :sat-scc-elim-binary             159
 :sat-scc-elim-vars               34
 :sat-subs-resolution             1187
 :sat-subs-resolution-dyn         186
 :sat-subsumed                    15920
 :sat-units                       64
 :solve-eqs-elim-vars             23
 :solve-eqs-steps                 604
 :time                            2.87
 :total-time                      2.88)
